Grasp exp. instance_n_15_m_5_id_2.lp tipoLifted 0 szPool 5 nIteration 20 alpha 0.4 
Academic license - for non-commercial use only
Read LP format model from file ../input/instancesGenerated/instance_n_15_m_5_id_2.lp
Reading time = 0.00 seconds
: 5 rows, 15 columns, 75 nonzeros
Optimize a model with 5 rows, 15 columns and 75 nonzeros
Variable types: 0 continuous, 15 integer (15 binary)
Coefficient statistics:
  Matrix range     [1e+00, 1e+01]
  Objective range  [1e+00, 1e+01]
  Bounds range     [1e+00, 1e+00]
  RHS range        [4e+01, 5e+01]
Found heuristic solution: objective 36.0000000

Explored 0 nodes (0 simplex iterations) in 0.00 seconds
Thread count was 1 (of 8 available processors)

Solution count 1: 36 
No other solutions better than 0

Solution limit reached
Best objective 3.600000000000e+01, best bound -, gap -
C_1:	 6.00 x_1  = 1.000000 + 6.00 x_2  = 0.000000 + 1.00 x_3  = 0.000000 + 4.00 x_4  = 1.000000 + 5.00 x_5  = 0.101545 + 9.00 x_6  = 0.253863 + 9.00 x_7  = 0.112583 + 2.00 x_8  = 1.000000 + 4.00 x_9  = 0.000000 + 1.00 x_10  = 1.000000 + 6.00 x_11  = 1.000000 + 2.00 x_12  = 0.000000 + 7.00 x_13  = 1.000000 + 8.00 x_14  = 0.024283 + 9.00 x_15  = 1.000000 <= 39.00
C_2:	 4.00 x_1  = 1.000000 + 9.00 x_2  = 0.000000 + 2.00 x_3  = 0.000000 + 7.00 x_4  = 1.000000 + 8.00 x_5  = 0.101545 + 7.00 x_6  = 0.253863 + 3.00 x_7  = 0.112583 + 7.00 x_8  = 1.000000 + 7.00 x_9  = 0.000000 + 10.00 x_10  = 1.000000 + 6.00 x_11  = 1.000000 + 5.00 x_12  = 0.000000 + 2.00 x_13  = 1.000000 + 3.00 x_14  = 0.024283 + 1.00 x_15  = 1.000000 <= 40.00
C_3:	 8.00 x_1  = 1.000000 + 9.00 x_2  = 0.000000 + 8.00 x_3  = 0.000000 + 1.00 x_4  = 1.000000 + 4.00 x_5  = 0.101545 + 2.00 x_6  = 0.253863 + 9.00 x_7  = 0.112583 + 5.00 x_8  = 1.000000 + 5.00 x_9  = 0.000000 + 4.00 x_10  = 1.000000 + 5.00 x_11  = 1.000000 + 3.00 x_12  = 0.000000 + 5.00 x_13  = 1.000000 + 3.00 x_14  = 0.024283 + 10.00 x_15  = 1.000000 <= 40.00
C_4:	 6.00 x_1  = 1.000000 + 7.00 x_2  = 0.000000 + 8.00 x_3  = 0.000000 + 7.00 x_4  = 1.000000 + 3.00 x_5  = 0.101545 + 7.00 x_6  = 0.253863 + 6.00 x_7  = 0.112583 + 7.00 x_8  = 1.000000 + 5.00 x_9  = 0.000000 + 2.00 x_10  = 1.000000 + 9.00 x_11  = 1.000000 + 1.00 x_12  = 0.000000 + 7.00 x_13  = 1.000000 + 10.00 x_14  = 0.024283 + 3.00 x_15  = 1.000000 <= 44.00
C_5:	 9.00 x_1  = 1.000000 + 9.00 x_2  = 0.000000 + 3.00 x_3  = 0.000000 + 7.00 x_4  = 1.000000 + 9.00 x_5  = 0.101545 + 9.00 x_6  = 0.253863 + 10.00 x_7  = 0.112583 + 10.00 x_8  = 1.000000 + 3.00 x_9  = 0.000000 + 7.00 x_10  = 1.000000 + 3.00 x_11  = 1.000000 + 9.00 x_12  = 0.000000 + 9.00 x_13  = 1.000000 + 10.00 x_14  = 0.024283 + 1.00 x_15  = 1.000000 <= 54.00
Solution initial: 64.344371 
Number Constraints Used in Cover:5
GRASP Method!
Number cuts repeat: 0
value: 63.920306
Number Constraints Used in Cover:9
GRASP Method!
Number cuts repeat: 0
value: 63.920306
Number Constraints Used in Cover:17
GRASP Method!
Number cuts repeat: 0
value: 63.920306
Number Constraints Used in Cover:25
GRASP Method!
Number cuts repeat: 0
value: 63.920306
Number Constraints Used in Cover:32
GRASP Method!
Number cuts repeat: 0
value: 63.920306
Number Constraints Used in Cover:44
GRASP Method!
Number cuts repeat: 0
value: 63.920306
Number Constraints Used in Cover:54
GRASP Method!
Number cuts repeat: 0
value: 63.920306
Number Constraints Used in Cover:65
GRASP Method!
Number cuts repeat: 0
value: 63.920306
Number Constraints Used in Cover:72
GRASP Method!
Number cuts repeat: 0
value: 63.920306
Number Constraints Used in Cover:81
GRASP Method!
Number cuts repeat: 0
value: 63.920306
Number Constraints Used in Cover:89
GRASP Method!
Number cuts repeat: 0
value: 63.920306
Number Constraints Used in Cover:102
GRASP Method!
Number cuts repeat: 0
value: 63.920306
Number Constraints Used in Cover:111
GRASP Method!
Number cuts repeat: 0
value: 63.920306
Number Constraints Used in Cover:122
GRASP Method!
Number cuts repeat: 0
value: 63.920306
Number Constraints Used in Cover:129
GRASP Method!
Number cuts repeat: 0
value: 63.920306
Number Constraints Used in Cover:131
GRASP Method!
Number cuts repeat: 0
value: 63.920306
Number Constraints Used in Cover:133
GRASP Method!
Number cuts repeat: 0
value: 63.920306
Number Constraints Used in Cover:136
GRASP Method!
Number cuts repeat: 0
value: 63.920306
Number Constraints Used in Cover:151
GRASP Method!
Number cuts repeat: 0
value: 63.920306
Number Constraints Used in Cover:155
GRASP Method!
Number cuts repeat: 0
value: 63.920306
Number Constraints Used in Cover:164
GRASP Method!
Number cuts repeat: 0
value: 63.920306
Number Constraints Used in Cover:178
GRASP Method!
Number cuts repeat: 0
value: 63.920306
Number Constraints Used in Cover:190
GRASP Method!
Number cuts repeat: 0
value: 63.920306
Number Constraints Used in Cover:199
GRASP Method!
Number cuts repeat: 0
value: 63.920306
Number Constraints Used in Cover:207
GRASP Method!
Number cuts repeat: 0
value: 63.920306
Number Constraints Used in Cover:219
GRASP Method!
Number cuts repeat: 0
value: 63.920306
Number Constraints Used in Cover:230
GRASP Method!
Number cuts repeat: 0
value: 63.920306
Number Constraints Used in Cover:240
GRASP Method!
Number cuts repeat: 0
value: 63.920306
Number Constraints Used in Cover:248
GRASP Method!
Number cuts repeat: 0
value: 63.920306
Number Constraints Used in Cover:253
GRASP Method!
Number cuts repeat: 0
value: 63.920306
Number Constraints Used in Cover:262
GRASP Method!
Number cuts repeat: 0
value: 63.920306
Number Constraints Used in Cover:272
GRASP Method!
Number cuts repeat: 0
value: 63.920306
Number Constraints Used in Cover:279
GRASP Method!
Number cuts repeat: 0
value: 63.920306
Number Constraints Used in Cover:285
GRASP Method!
Number cuts repeat: 0
value: 63.920306
Number Constraints Used in Cover:290
GRASP Method!
Number cuts repeat: 0
value: 63.920306
Number Constraints Used in Cover:293
GRASP Method!
Number cuts repeat: 0
value: 63.920306
Number Constraints Used in Cover:300
GRASP Method!
Number cuts repeat: 0
value: 63.920306
Number Constraints Used in Cover:308
GRASP Method!
Number cuts repeat: 0
value: 63.920306
Number Constraints Used in Cover:312
GRASP Method!
Number cuts repeat: 0
value: 63.920306
Number Constraints Used in Cover:315
GRASP Method!
Number cuts repeat: 0
value: 63.920306
Number Constraints Used in Cover:317
GRASP Method!
Number cuts repeat: 0
value: 63.920306
Number Constraints Used in Cover:322
GRASP Method!
Number cuts repeat: 0
value: 63.920306
Number Constraints Used in Cover:330
GRASP Method!
Number cuts repeat: 0
value: 63.774890
Number Constraints Used in Cover:335
GRASP Method!
Number cuts repeat: 0
value: 63.774890
Number Constraints Used in Cover:348
GRASP Method!
Number cuts repeat: 0
value: 63.774890
Number Constraints Used in Cover:360
GRASP Method!
Number cuts repeat: 0
value: 63.774890
Number Constraints Used in Cover:368
GRASP Method!
Number cuts repeat: 0
value: 63.774890
Number Constraints Used in Cover:381
GRASP Method!
Number cuts repeat: 0
value: 63.774890
Number Constraints Used in Cover:392
GRASP Method!
Number cuts repeat: 0
value: 63.774890
Number Constraints Used in Cover:408
GRASP Method!
Number cuts repeat: 0
value: 63.774890
Number Constraints Used in Cover:420
GRASP Method!
Number cuts repeat: 0
value: 63.774890
Number Constraints Used in Cover:425
GRASP Method!
Number cuts repeat: 0
value: 63.774890
Number Constraints Used in Cover:433
GRASP Method!
Number cuts repeat: 0
value: 63.774890
Number Constraints Used in Cover:439
GRASP Method!
Number cuts repeat: 0
value: 63.774890
Number Constraints Used in Cover:451
GRASP Method!
Number cuts repeat: 0
value: 63.774890
Number Constraints Used in Cover:468
GRASP Method!
Number cuts repeat: 0
value: 63.774890
Number Constraints Used in Cover:474
GRASP Method!
Number cuts repeat: 0
value: 63.774890
Number Constraints Used in Cover:486
GRASP Method!
Number cuts repeat: 0
value: 63.774890
Number Constraints Used in Cover:497
GRASP Method!
Number cuts repeat: 0
value: 63.774890
Number Constraints Used in Cover:504
GRASP Method!
Number cuts repeat: 0
value: 63.774890
Number Constraints Used in Cover:519
GRASP Method!
Number cuts repeat: 0
value: 63.774890
Number Constraints Used in Cover:526
GRASP Method!
Number cuts repeat: 0
value: 63.774890
Number Constraints Used in Cover:534
GRASP Method!
Number cuts repeat: 0
value: 63.774890
Number Constraints Used in Cover:534
GRASP Method!
Number cuts repeat: 0
value: 63.774890
Number Constraints Used in Cover:538
GRASP Method!
Number cuts repeat: 0
value: 63.774890
Number Constraints Used in Cover:543
GRASP Method!
Number cuts repeat: 0
value: 63.774890
Number Constraints Used in Cover:551
GRASP Method!
Number cuts repeat: 0
value: 63.774890
Number Constraints Used in Cover:558
GRASP Method!
Number cuts repeat: 0
value: 63.774890
Number Constraints Used in Cover:562
GRASP Method!
Number cuts repeat: 0
value: 63.774890
Number Constraints Used in Cover:570
GRASP Method!
Number cuts repeat: 0
value: 63.774890
Number Constraints Used in Cover:574
GRASP Method!
Number cuts repeat: 0
value: 63.774890
Number Constraints Used in Cover:580
GRASP Method!
Number cuts repeat: 0
value: 63.774890
Number Constraints Used in Cover:588
GRASP Method!
Number cuts repeat: 0
value: 63.774890
Number Constraints Used in Cover:591
GRASP Method!
Number cuts repeat: 0
value: 63.774890
Number Constraints Used in Cover:600
GRASP Method!
Number cuts repeat: 0
value: 63.774890
Number Constraints Used in Cover:606
GRASP Method!
Number cuts repeat: 0
value: 63.774890
Number Constraints Used in Cover:612
GRASP Method!
Number cuts repeat: 0
value: 63.774890
Number Constraints Used in Cover:625
GRASP Method!
Number cuts repeat: 0
value: 63.774890
Number Constraints Used in Cover:632
GRASP Method!
Number cuts repeat: 0
value: 63.774890
Number Constraints Used in Cover:645
GRASP Method!
Number cuts repeat: 0
value: 63.774890
Number Constraints Used in Cover:653
GRASP Method!
Number cuts repeat: 0
value: 63.774890
Number Constraints Used in Cover:656
GRASP Method!
Number cuts repeat: 0
value: 63.774890
Number Constraints Used in Cover:663
GRASP Method!
Number cuts repeat: 0
value: 63.774890
Number Constraints Used in Cover:668
GRASP Method!
Number cuts repeat: 0
value: 63.774890
Number Constraints Used in Cover:675
GRASP Method!
Number cuts repeat: 0
value: 63.774890
Number Constraints Used in Cover:680
GRASP Method!
Number cuts repeat: 0
value: 63.774890
Number Constraints Used in Cover:693
GRASP Method!
Number cuts repeat: 0
value: 63.774890
Number Constraints Used in Cover:701
GRASP Method!
Number cuts repeat: 0
value: 63.774890
Number Constraints Used in Cover:705
GRASP Method!
Number cuts repeat: 0
value: 63.774890
Number Constraints Used in Cover:714
GRASP Method!
Number cuts repeat: 0
value: 63.774890
Number Constraints Used in Cover:719
GRASP Method!
Number cuts repeat: 0
value: 63.774890
Number Constraints Used in Cover:729
GRASP Method!
Number cuts repeat: 0
value: 63.774890
Number Constraints Used in Cover:734
GRASP Method!
Number cuts repeat: 0
value: 63.774890
Number Constraints Used in Cover:742
GRASP Method!
Number cuts repeat: 0
value: 63.774890
Number Constraints Used in Cover:750
GRASP Method!
Number cuts repeat: 0
value: 63.774890
Number Constraints Used in Cover:755
GRASP Method!
Number cuts repeat: 0
value: 63.774890
Number Constraints Used in Cover:760
GRASP Method!
Number cuts repeat: 0
value: 63.774890
Number Cuts Final: 757
